unsat
(:binary-propagations  15
 :conflicts            1
 :final-checks         1
 :max-generation       1
 :max-memory           22.98
 :memory               20.78
 :mk-bool-var          385
 :mk-clause            139
 :mk-clause-binary     278
 :num-allocs           5726475
 :num-checks           1
 :propagations         15
 :quant-instantiations 89
 :restarts             1
 :rlimit-count         43669
 :time                 0.03)
